65	65	65	65	9	14	65	65	65	3	14	65	65	65	65	
65	65	65	9	14	14	3	65	14	14	14	3	65	65	65	
65	65	65	14	14	14	14	3	14	14	14	14	65	65	65	
65	65	65	65	3	14	14	14	14	14	3	65	65	65	65	
65	65	65	25	25	139	25	4	25	25	25	25	65	65	65	
65	65	25	25	25	25	25	3	25	25	25	139	25	65	65	
65	25	17	25	25	65	65	65	65	65	25	25	17	25	65	
65	25	25	17	65	65	65	65	65	65	65	17	25	25	65	
14	25	119	25	65	65	65	65	65	65	65	25	25	25	14	
25	14	25	65	65	65	65	65	65	65	65	65	25	14	25	
25	25	14	65	65	65	65	65	65	65	65	65	14	25	25	
119	25	25	65	65	65	65	65	65	65	65	65	25	139	25	
65	25	25	17	65	65	65	65	65	65	65	17	25	25	65	
65	17	17	25	25	65	65	65	65	65	25	25	17	17	65	
65	65	25	25	124	14	25	65	139	14	25	25	25	65	65	
65	65	65	25	14	25	25	25	25	25	14	25	65	65	65	
65	65	65	65	65	25	25	25	25	25	65	65	65	65	65	
